# Solution for model r10_t9_m6_7 Batch Number: 1
# Finished Task: 9 / 9
# Makespan: 459.0, Total Distance: 75.0, Total Time: 1.3206
# R O S F Batch
0 0 10 0.0 0.0 -1
1 1 -1 0.0 0.0 -1
2 2 16 0.0 0.0 -1
3 3 14 0.0 0.0 -1
4 4 -1 0.0 0.0 -1
5 5 11 0.0 0.0 -1
6 6 12 0.0 0.0 -1
7 7 15 0.0 0.0 -1
8 8 -1 0.0 0.0 -1
9 9 -1 0.0 0.0 -1
10 0 -1 364.0 390.0 0
11 5 -1 292.0 322.0 0
12 6 -1 360.0 385.0 0
13 3 -1 423.0 459.0 0
14 3 17 361.0 390.0 0
15 7 -1 385.0 424.0 0
16 2 18 339.0 364.0 0
17 3 13 390.0 423.0 0
18 2 -1 438.0 459.0 0
